100 5
25 1000
10
7
13
19
26
3
5
9
16
16
12
19
23
20
8
19
2
12
17
9
11
18
29
3
6
17
16
16
9
21
27
23
11
14
8
5
8
16
31
9
5
5
7
18
16
1
27
36
30
13
10
9
14
18
2
6
7
18
28
3
13
19
10
9
20
25
25
36
6
5
15
25
9
8
18
13
14
3
23
6
26
16
11
7
41
35
26
9
15
3
1
2
22
27
20
11
12
10
9
17
35 35 0 1000 0 0
41 49 0 974 10 3
35 17 0 972 10 2
55 45 0 967 10 2
55 20 620 860 10 2
15 30 0 969 10 1
25 30 345 585 10 2
20 50 0 968 10 2
10 43 323 563 10 3
55 60 329 569 10 3
30 60 485 725 10 3
20 65 146 386 10 2
50 35 0 975 10 3
30 25 639 879 10 1
15 10 32 272 10 3
30 5 118 358 10 2
10 20 203 443 10 1
5 30 682 922 10 1
20 40 286 526 10 3
15 60 204 444 10 2
45 65 504 744 10 3
45 20 0 971 10 1
45 10 332 572 10 3
55 5 146 386 10 2
65 35 656 896 10 2
65 20 716 956 10 3
45 30 0 978 10 3
35 40 60 300 10 3
41 37 65 305 10 3
64 42 132 372 10 1
40 60 187 427 10 2
31 52 0 972 10 3
35 69 599 839 10 3
53 52 24 264 10 3
65 55 0 953 10 3
63 65 630 870 10 1
2 60 41 281 10 1
20 20 0 968 10 1
5 5 234 474 10 3
60 12 33 273 10 3
40 25 279 519 10 1
42 7 334 574 10 2
24 12 25 265 10 3
23 3 543 783 10 3
11 14 167 407 10 1
6 38 29 269 10 1
2 48 452 692 10 2
8 56 48 288 10 3
13 52 0 962 10 1
6 68 401 641 10 1
47 47 0 973 10 3
49 58 281 521 10 3
27 43 0 978 10 2
37 31 332 572 10 2
57 29 568 808 10 2
63 23 560 800 10 3
53 12 519 759 10 1
32 12 356 596 10 2
36 26 740 980 10 2
21 24 0 972 10 1
17 34 672 912 10 1
12 24 214 454 10 2
24 58 113 353 10 3
27 69 34 274 10 2
15 77 154 394 10 1
62 77 49 289 10 1
49 73 523 763 10 1
67 5 228 468 10 2
56 39 575 815 10 1
37 47 108 348 10 1
37 56 728 968 10 2
57 68 198 438 10 1
47 16 0 967 10 1
44 17 234 474 10 1
46 13 622 862 10 1
49 11 0 962 10 2
49 42 212 452 10 1
53 43 730 970 10 1
61 52 322 562 10 3
57 48 307 547 10 3
56 37 728 968 10 3
55 54 314 554 10 1
15 47 0 966 10 2
14 37 0 968 10 3
11 31 354 594 10 1
16 22 0 966 10 3
4 18 307 547 10 2
28 18 314 554 10 1
26 52 214 454 10 3
26 35 718 958 10 2
31 67 320 560 10 2
15 19 0 964 10 3
22 22 18 258 10 1
18 24 729 969 10 1
26 27 0 977 10 3
25 24 0 975 10 3
22 27 0 974 10 1
25 21 523 763 10 2
19 21 0 968 10 1
20 26 263 503 10 3
18 18 725 965 10 1
12 25 0 1000 5 4
64 30 0 1000 5 4
26 60 0 1000 5 4
32 70 0 1000 5 4
47 33 0 1000 5 4
0 0 0 0 1
0 0 0 0 1
0 0 0 0 1
0 1 0 0 0
0 0 0 0 0
1 0 0 0 0
0 0 1 0 0
1 0 0 0 0
0 0 0 1 0
0 0 1 0 0
0 0 1 0 0
0 0 0 0 1
0 0 0 0 0
1 0 0 0 0
1 0 0 0 0
0 0 0 0 0
0 0 0 0 0
1 0 0 0 0
0 0 1 0 0
0 0 0 1 0
0 0 0 0 0
0 0 0 0 1
0 1 0 0 0
0 1 0 0 0
0 1 0 0 0
0 0 0 0 1
0 0 0 0 1
0 0 0 0 1
0 0 0 0 0
0 0 0 1 0
0 0 1 0 0
0 0 0 1 0
0 0 0 0 1
0 1 0 0 0
0 0 0 0 0
0 0 0 0 0
0 0 0 0 0
1 0 0 0 0
0 1 0 0 0
0 0 0 0 0
0 0 0 0 1
1 0 0 0 0
1 0 0 0 0
0 0 0 0 0
0 0 0 0 0
1 0 0 0 0
0 0 1 0 0
0 0 0 0 0
0 0 0 0 0
0 0 0 0 1
0 0 0 1 0
0 0 1 0 0
0 0 0 0 1
0 1 0 0 0
0 1 0 0 0
0 0 0 0 0
1 0 0 0 0
0 0 0 0 1
0 0 0 0 0
0 0 0 0 0
1 0 0 0 0
0 0 1 0 0
0 0 0 1 0
0 0 0 0 0
0 0 0 0 0
0 0 0 0 0
0 1 0 0 0
0 0 0 0 0
0 0 0 0 0
0 0 1 0 0
0 0 0 0 0
0 0 0 0 0
0 0 0 0 0
0 0 0 0 0
0 0 0 0 1
0 0 0 0 0
0 0 0 0 0
0 1 0 0 0
0 0 0 0 1
0 0 0 0 1
0 0 0 0 0
0 0 1 0 0
1 0 0 0 0
0 0 0 0 0
1 0 0 0 0
1 0 0 0 0
0 0 0 0 0
0 0 1 0 0
1 0 0 0 0
0 0 0 1 0
1 0 0 0 0
0 0 0 0 0
0 0 0 0 0
1 0 0 0 0
1 0 0 0 0
0 0 0 0 0
1 0 0 0 0
0 0 0 0 0
1 0 0 0 0
0 0 0 0 0
